
Welcome to IBM(R) ILOG(R) CPLEX(R) Interactive Optimizer 22.1.1.0
  with Simplex, Mixed Integer & Barrier Optimizers
5725-A06 5725-A29 5724-Y48 5724-Y49 5724-Y54 5724-Y55 5655-Y21
Copyright IBM Corp. 1988, 2022.  All Rights Reserved.

Type 'help' for a list of available commands.
Type 'help' followed by a command name for more
information on commands.

CPLEX> Selected objective sense:  MINIMIZE
Selected objective  name:  00000000
Selected RHS        name:  RHS1
Selected bound      name:  BOUND
Problem 'ee.mps' read.
Read time = 0.03 sec. (3.14 ticks)
CPLEX> New value for time limit in seconds: 7200
CPLEX> New value for parallel optimization mode: -1
CPLEX> New value for default parallel thread count: 40
CPLEX> New value for mixed integer optimality gap tolerance: 1e-13
CPLEX> Version identifier: 22.1.1.0 | 2022-11-28 | 9160aff4d
CPXPARAM_Threads                                 40
CPXPARAM_Parallel                                -1
CPXPARAM_TimeLimit                               7200
CPXPARAM_MIP_Tolerances_MIPGap                   1e-13
Found incumbent of value 0.000000 after 0.00 sec. (0.31 ticks)
Tried aggregator 2 times.
MIP Presolve eliminated 183 rows and 2745 columns.
MIP Presolve modified 5862 coefficients.
Aggregator did 713 substitutions.
Reduced MIP has 3624 rows, 7744 columns, and 28667 nonzeros.
Reduced MIP has 7744 binaries, 0 generals, 0 SOSs, and 0 indicators.
Presolve time = 0.07 sec. (68.81 ticks)
Probing time = 0.03 sec. (5.30 ticks)
Tried aggregator 1 time.
Detecting symmetries...
Reduced MIP has 3624 rows, 7744 columns, and 28667 nonzeros.
Reduced MIP has 7744 binaries, 0 generals, 0 SOSs, and 0 indicators.
Presolve time = 0.02 sec. (21.94 ticks)
Probing time = 0.02 sec. (5.09 ticks)
Clique table members: 18558.
MIP emphasis: balance optimality and feasibility.
MIP search method: dynamic search.
Parallel mode: opportunistic, using up to 40 threads.
Root relaxation solution time = 0.12 sec. (95.40 ticks)

        Nodes                                         Cuts/
   Node  Left     Objective  IInf  Best Integer    Best Bound    ItCnt     Gap

*     0+    0                            0.0000  -1.31000e+13              --- 
*     0+    0                      -3.30000e+12  -1.31000e+13           296.97%
*     0+    0                      -4.40000e+12  -1.31000e+13           197.73%
*     0+    0                      -4.40000e+12  -1.31000e+13           197.73%
*     0+    0                      -5.50000e+12  -1.31000e+13           138.18%
      0     0  -1.30900e+13   108  -5.50000e+12  -1.30900e+13     2285  138.00%
*     0+    0                      -7.59000e+12  -1.30900e+13            72.46%
*     0+    0                      -1.30900e+13  -1.30900e+13             0.00%
      0     0  -1.30900e+13   119  -1.30900e+13      Cuts: 55     2507    0.00%
*     0+    0                      -1.30900e+13  -1.30900e+13             0.00%
      0     0  -1.30900e+13   154  -1.30900e+13      Cuts: 58     3244    0.00%
*     0+    0                      -1.30900e+13  -1.30900e+13             0.00%

Repeating presolve.
Tried aggregator 2 times.
MIP Presolve eliminated 1246 rows and 3451 columns.
MIP Presolve added 12 rows and 0 columns.
MIP Presolve modified 67 coefficients.
Aggregator did 341 substitutions.
Reduced MIP has 2049 rows, 3902 columns, and 14315 nonzeros.
Reduced MIP has 3902 binaries, 0 generals, 0 SOSs, and 0 indicators.
Presolve time = 0.04 sec. (44.50 ticks)
Probing fixed 37 vars, tightened 0 bounds.
Probing time = 0.04 sec. (14.09 ticks)
Tried aggregator 2 times.
MIP Presolve eliminated 23 rows and 51 columns.
Aggregator did 6 substitutions.
Reduced MIP has 2020 rows, 3841 columns, and 14094 nonzeros.
Reduced MIP has 3841 binaries, 0 generals, 0 SOSs, and 0 indicators.
Presolve time = 0.02 sec. (21.89 ticks)
Probing time = 0.02 sec. (3.99 ticks)
Tried aggregator 1 time.
Detecting symmetries...
Reduced MIP has 2020 rows, 3841 columns, and 14094 nonzeros.
Reduced MIP has 3841 binaries, 0 generals, 0 SOSs, and 0 indicators.
Presolve time = 0.02 sec. (11.50 ticks)
Represolve time = 0.17 sec. (124.70 ticks)
Probing time = 0.02 sec. (3.99 ticks)
Clique table members: 9080.
MIP emphasis: balance optimality and feasibility.
MIP search method: dynamic search.
Parallel mode: opportunistic, using up to 40 threads.
Root relaxation solution time = 0.10 sec. (94.85 ticks)

        Nodes                                         Cuts/
   Node  Left     Objective  IInf  Best Integer    Best Bound    ItCnt     Gap

*     0+    0                      -1.30900e+13  -1.30900e+13             0.00%
      0     0  -1.30900e+13   149  -1.30900e+13  -1.30900e+13     6083    0.00%
*     0+    0                      -1.30900e+13  -1.30900e+13             0.00%
      0     0  -1.30900e+13   265  -1.30900e+13      Cuts: 98     6517    0.00%
      0     0  -1.30900e+13   276  -1.30900e+13      Cuts: 85     6822    0.00%
*     0+    0                      -1.30900e+13  -1.30900e+13             0.00%
      0     2  -1.30900e+13   276  -1.30900e+13  -1.30900e+13     6822    0.00%
Elapsed time = 2.62 sec. (1792.35 ticks, tree = 0.02 MB, solutions = 11)
    590    62        cutoff        -1.30900e+13  -1.30900e+13    27824    0.00%
   1363   130        cutoff        -1.30900e+13  -1.30900e+13   103264    0.00%
   2121   198  -1.30900e+13    84  -1.30900e+13  -1.30900e+13   128301    0.00%
   2920   302  -1.30900e+13   154  -1.30900e+13  -1.30900e+13   176413    0.00%
   3642   341  -1.30900e+13   132  -1.30900e+13  -1.30900e+13   314826    0.00%
   4468   334  -1.30900e+13    55  -1.30900e+13  -1.30900e+13   240573    0.00%
   5100    31  -1.30900e+13   102  -1.30900e+13  -1.30900e+13   412627    0.00%
   5529    29  -1.30900e+13    73  -1.30900e+13  -1.30900e+13   410876    0.00%
   5966    34  -1.30900e+13   166  -1.30900e+13  -1.30900e+13   430044    0.00%

GUB cover cuts applied:  8
Clique cuts applied:  18
Cover cuts applied:  681
Mixed integer rounding cuts applied:  12
Zero-half cuts applied:  16
Lift and project cuts applied:  30
Gomory fractional cuts applied:  32

Root node processing (before b&c):
  Real time             =    2.17 sec. (1792.07 ticks)
Parallel b&c, 40 threads:
  Real time             =    4.14 sec. (2656.45 ticks)
  Sync time (average)   =    1.49 sec.
  Wait time (average)   =    0.00 sec.
                          ------------
Total (root+branch&cut) =    6.32 sec. (4448.51 ticks)

Solution pool: 17 solutions saved.

MIP - Integer optimal solution:  Objective = -1.3089999090e+13
Solution time =    6.41 sec.  Iterations = 504553  Nodes = 6331
Deterministic time = 4448.55 ticks  (694.17 ticks/sec)

CPLEX> Solution 'p18' written to file 'ee.sol'.
CPLEX> 